p tw 128 21121 2 
1 66 
1 67 
1 69 
1 71 
1 73 
1 75 
1 78 
1 79 
1 81 
1 83 
1 85 
1 87 
1 90 
1 91 
1 93 
1 95 
1 97 
1 99 
1 101 
1 103 
1 105 
1 107 
1 110 
1 111 
1 114 
1 115 
1 117 
1 120 
1 121 
1 124 
1 126 
1 127 
2 65 
2 68 
2 70 
2 72 
2 74 
2 76 
2 77 
2 80 
2 82 
2 84 
2 86 
2 88 
2 89 
2 92 
2 94 
2 96 
2 98 
2 100 
2 102 
2 104 
2 106 
2 108 
2 109 
2 112 
2 113 
2 116 
2 118 
2 119 
2 122 
2 123 
2 125 
2 128 
3 4 
3 66 
3 68 
3 69 
3 71 
3 74 
3 76 
3 78 
3 80 
3 82 
3 83 
3 86 
3 88 
3 90 
3 91 
3 93 
3 96 
3 98 
3 100 
3 102 
3 103 
3 105 
3 108 
3 110 
3 112 
3 114 
3 116 
3 118 
3 120 
3 121 
3 124 
3 126 
3 128 
4 65 
4 67 
4 70 
4 72 
4 73 
4 75 
4 77 
4 79 
4 81 
4 84 
4 85 
4 87 
4 89 
4 92 
4 94 
4 95 
4 97 
4 99 
4 101 
4 104 
4 106 
4 107 
4 109 
4 111 
4 113 
4 115 
4 117 
4 119 
4 122 
4 123 
4 125 
4 127 
5 6 
5 66 
5 68 
5 69 
5 72 
5 74 
5 75 
5 77 
5 79 
5 81 
5 83 
5 86 
5 88 
5 90 
5 92 
5 94 
5 95 
5 97 
5 100 
5 102 
5 103 
5 106 
5 107 
5 109 
5 112 
5 113 
5 116 
5 117 
5 120 
5 121 
5 124 
5 125 
5 127 
6 65 
6 67 
6 70 
6 71 
6 73 
6 76 
6 78 
6 80 
6 82 
6 84 
6 85 
6 87 
6 89 
6 91 
6 93 
6 96 
6 98 
6 99 
6 101 
6 104 
6 105 
6 108 
6 110 
6 111 
6 114 
6 115 
6 118 
6 119 
6 122 
6 123 
6 126 
6 128 
7 8 
7 65 
7 67 
7 70 
7 71 
7 74 
7 76 
7 78 
7 79 
7 82 
7 83 
7 85 
7 88 
7 89 
7 92 
7 94 
7 95 
7 98 
7 100 
7 101 
7 104 
7 105 
7 107 
7 109 
7 111 
7 113 
7 116 
7 117 
7 120 
7 121 
7 124 
7 126 
7 128 
8 66 
8 68 
8 69 
8 72 
8 73 
8 75 
8 77 
8 80 
8 81 
8 84 
8 86 
8 87 
8 90 
8 91 
8 93 
8 96 
8 97 
8 99 
8 102 
8 103 
8 106 
8 108 
8 110 
8 112 
8 114 
8 115 
8 118 
8 119 
8 122 
8 123 
8 125 
8 127 
9 10 
9 65 
9 68 
9 70 
9 72 
9 74 
9 76 
9 77 
9 80 
9 82 
9 83 
9 86 
9 87 
9 90 
9 92 
9 93 
9 95 
9 97 
9 99 
9 101 
9 103 
9 106 
9 108 
9 109 
9 111 
9 114 
9 115 
9 117 
9 120 
9 121 
9 123 
9 126 
9 128 
10 66 
10 67 
10 69 
10 71 
10 73 
10 75 
10 78 
10 79 
10 81 
10 84 
10 85 
10 88 
10 89 
10 91 
10 94 
10 96 
10 98 
10 100 
10 102 
10 104 
10 105 
10 107 
10 110 
10 112 
10 113 
10 116 
10 118 
10 119 
10 122 
10 124 
10 125 
10 127 
11 12 
11 65 
11 68 
11 69 
11 72 
11 74 
11 75 
11 78 
11 80 
11 82 
11 83 
11 85 
11 87 
11 90 
11 92 
11 94 
11 95 
11 98 
11 100 
11 101 
11 103 
11 105 
11 107 
11 110 
11 112 
11 113 
11 115 
11 118 
11 119 
11 122 
11 123 
11 126 
11 127 
12 66 
12 67 
12 70 
12 71 
12 73 
12 76 
12 77 
12 79 
12 81 
12 84 
12 86 
12 88 
12 89 
12 91 
12 93 
12 96 
12 97 
12 99 
12 102 
12 104 
12 106 
12 108 
12 109 
12 111 
12 114 
12 116 
12 117 
12 120 
12 121 
12 124 
12 125 
12 128 
13 14 
13 66 
13 68 
13 69 
13 72 
13 73 
13 76 
13 78 
13 79 
13 82 
13 83 
13 86 
13 87 
13 89 
13 92 
13 93 
13 95 
13 97 
13 99 
13 102 
13 104 
13 105 
13 108 
13 109 
13 111 
13 113 
13 116 
13 118 
13 119 
13 122 
13 124 
13 126 
13 127 
14 65 
14 67 
14 70 
14 71 
14 74 
14 75 
14 77 
14 80 
14 81 
14 84 
14 85 
14 88 
14 90 
14 91 
14 94 
14 96 
14 98 
14 100 
14 101 
14 103 
14 106 
14 107 
14 110 
14 112 
14 114 
14 115 
14 117 
14 120 
14 121 
14 123 
14 125 
14 128 
15 16 
15 66 
15 68 
15 70 
15 71 
15 74 
15 76 
15 77 
15 80 
15 82 
15 84 
15 85 
15 87 
15 90 
15 91 
15 94 
15 96 
15 97 
15 99 
15 101 
15 103 
15 105 
15 107 
15 109 
15 111 
15 113 
15 116 
15 118 
15 120 
15 122 
15 124 
15 125 
15 127 
16 65 
16 67 
16 69 
16 72 
16 73 
16 75 
16 78 
16 79 
16 81 
16 83 
16 86 
16 88 
16 89 
16 92 
16 93 
16 95 
16 98 
16 100 
16 102 
16 104 
16 106 
16 108 
16 110 
16 112 
16 114 
16 115 
16 117 
16 119 
16 121 
16 123 
16 126 
16 128 
17 18 
17 66 
17 68 
17 70 
17 72 
17 73 
17 76 
17 78 
17 79 
17 82 
17 84 
17 85 
17 88 
17 90 
17 92 
17 94 
17 96 
17 97 
17 100 
17 101 
17 104 
17 106 
17 108 
17 110 
17 112 
17 114 
17 115 
17 117 
17 120 
17 122 
17 124 
17 126 
17 127 
18 65 
18 67 
18 69 
18 71 
18 74 
18 75 
18 77 
18 80 
18 81 
18 83 
18 86 
18 87 
18 89 
18 91 
18 93 
18 95 
18 98 
18 99 
18 102 
18 103 
18 105 
18 107 
18 109 
18 111 
18 113 
18 116 
18 118 
18 119 
18 121 
18 123 
18 125 
18 128 
19 20 
19 66 
19 67 
19 70 
19 72 
19 74 
19 75 
19 78 
19 80 
19 81 
19 84 
19 86 
19 87 
19 90 
19 92 
19 94 
19 95 
19 98 
19 99 
19 102 
19 104 
19 106 
19 107 
19 110 
19 111 
19 114 
19 116 
19 118 
19 120 
19 122 
19 124 
19 126 
19 128 
20 65 
20 68 
20 69 
20 71 
20 73 
20 76 
20 77 
20 79 
20 82 
20 83 
20 85 
20 88 
20 89 
20 91 
20 93 
20 96 
20 97 
20 100 
20 101 
20 103 
20 105 
20 108 
20 109 
20 112 
20 113 
20 115 
20 117 
20 119 
20 121 
20 123 
20 125 
20 127 
21 22 
21 66 
21 67 
21 70 
21 71 
21 74 
21 76 
21 78 
21 79 
21 82 
21 84 
21 85 
21 87 
21 90 
21 92 
21 93 
21 95 
21 98 
21 99 
21 102 
21 103 
21 106 
21 108 
21 110 
21 112 
21 113 
21 116 
21 117 
21 119 
21 121 
21 123 
21 125 
21 127 
22 65 
22 68 
22 69 
22 72 
22 73 
22 75 
22 77 
22 80 
22 81 
22 83 
22 86 
22 88 
22 89 
22 91 
22 94 
22 96 
22 97 
22 100 
22 101 
22 104 
22 105 
22 107 
22 109 
22 111 
22 114 
22 115 
22 118 
22 120 
22 122 
22 124 
22 126 
22 128 
23 24 
23 66 
23 68 
23 70 
23 72 
23 74 
23 75 
23 78 
23 79 
23 82 
23 84 
23 86 
23 88 
23 89 
23 91 
23 94 
23 96 
23 97 
23 99 
23 102 
23 103 
23 105 
23 107 
23 110 
23 111 
23 113 
23 115 
23 117 
23 119 
23 121 
23 123 
23 126 
23 128 
24 65 
24 67 
24 69 
24 71 
24 73 
24 76 
24 77 
24 80 
24 81 
24 83 
24 85 
24 87 
24 90 
24 92 
24 93 
24 95 
24 98 
24 100 
24 101 
24 104 
24 106 
24 108 
24 109 
24 112 
24 114 
24 116 
24 118 
24 120 
24 122 
24 124 
24 125 
24 127 
25 26 
25 66 
25 67 
25 70 
25 71 
25 73 
25 76 
25 77 
25 80 
25 82 
25 83 
25 86 
25 88 
25 90 
25 92 
25 94 
25 95 
25 97 
25 100 
25 102 
25 104 
25 105 
25 107 
25 110 
25 111 
25 114 
25 115 
25 118 
25 119 
25 121 
25 123 
25 125 
25 127 
26 65 
26 68 
26 69 
26 72 
26 74 
26 75 
26 78 
26 79 
26 81 
26 84 
26 85 
26 87 
26 89 
26 91 
26 93 
26 96 
26 98 
26 99 
26 101 
26 103 
26 106 
26 108 
26 109 
26 112 
26 113 
26 116 
26 117 
26 120 
26 122 
26 124 
26 126 
26 128 
27 28 
27 66 
27 67 
27 70 
27 72 
27 73 
27 75 
27 78 
27 80 
27 82 
27 83 
27 85 
27 87 
27 89 
27 92 
27 93 
27 96 
27 97 
27 100 
27 102 
27 103 
27 105 
27 107 
27 109 
27 112 
27 114 
27 116 
27 117 
27 120 
27 122 
27 123 
27 125 
27 128 
28 65 
28 68 
28 69 
28 71 
28 74 
28 76 
28 77 
28 79 
28 81 
28 84 
28 86 
28 88 
28 90 
28 91 
28 94 
28 95 
28 98 
28 99 
28 101 
28 104 
28 106 
28 108 
28 110 
28 111 
28 113 
28 115 
28 118 
28 119 
28 121 
28 124 
28 126 
28 127 
29 30 
29 66 
29 68 
29 69 
29 71 
29 74 
29 76 
29 78 
29 80 
29 81 
29 83 
29 85 
29 87 
29 89 
29 91 
29 94 
29 95 
29 97 
29 100 
29 102 
29 104 
29 106 
29 108 
29 110 
29 111 
29 113 
29 115 
29 117 
29 120 
29 122 
29 123 
29 125 
29 128 
30 65 
30 67 
30 70 
30 72 
30 73 
30 75 
30 77 
30 79 
30 82 
30 84 
30 86 
30 88 
30 90 
30 92 
30 93 
30 96 
30 98 
30 99 
30 101 
30 103 
30 105 
30 107 
30 109 
30 112 
30 114 
30 116 
30 118 
30 119 
30 121 
30 124 
30 126 
30 127 
31 32 
31 65 
31 68 
31 69 
31 71 
31 73 
31 76 
31 77 
31 79 
31 82 
31 84 
31 86 
31 87 
31 89 
31 92 
31 94 
31 95 
31 98 
31 99 
31 102 
31 103 
31 105 
31 107 
31 110 
31 112 
31 114 
31 115 
31 117 
31 120 
31 122 
31 124 
31 125 
31 128 
32 66 
32 67 
32 70 
32 72 
32 74 
32 75 
32 78 
32 80 
32 81 
32 83 
32 85 
32 88 
32 90 
32 91 
32 93 
32 96 
32 97 
32 100 
32 101 
32 104 
32 106 
32 108 
32 109 
32 111 
32 113 
32 116 
32 118 
32 119 
32 121 
32 123 
32 126 
32 127 
33 34 
33 65 
33 68 
33 70 
33 71 
33 74 
33 75 
33 78 
33 79 
33 81 
33 83 
33 86 
33 87 
33 89 
33 92 
33 94 
33 96 
33 97 
33 99 
33 101 
33 104 
33 105 
33 108 
33 110 
33 112 
33 114 
33 116 
33 118 
33 120 
33 121 
33 123 
33 125 
33 127 
34 66 
34 67 
34 69 
34 72 
34 73 
34 76 
34 77 
34 80 
34 82 
34 84 
34 85 
34 88 
34 90 
34 91 
34 93 
34 95 
34 98 
34 100 
34 102 
34 103 
34 106 
34 107 
34 109 
34 111 
34 113 
34 115 
34 117 
34 119 
34 122 
34 124 
34 126 
34 128 
35 36 
35 66 
35 67 
35 70 
35 72 
35 73 
35 76 
35 77 
35 80 
35 81 
35 83 
35 86 
35 88 
35 89 
35 91 
35 94 
35 95 
35 98 
35 99 
35 101 
35 103 
35 105 
35 108 
35 110 
35 112 
35 113 
35 116 
35 117 
35 120 
35 122 
35 123 
35 126 
35 127 
36 65 
36 68 
36 69 
36 71 
36 74 
36 75 
36 78 
36 79 
36 82 
36 84 
36 85 
36 87 
36 90 
36 92 
36 93 
36 96 
36 97 
36 100 
36 102 
36 104 
36 106 
36 107 
36 109 
36 111 
36 114 
36 115 
36 118 
36 119 
36 121 
36 124 
36 125 
36 128 
37 38 
37 66 
37 68 
37 70 
37 71 
37 73 
37 75 
37 77 
37 80 
37 81 
37 83 
37 85 
37 87 
37 90 
37 92 
37 94 
37 96 
37 98 
37 99 
37 102 
37 104 
37 105 
37 108 
37 109 
37 112 
37 113 
37 115 
37 117 
37 119 
37 121 
37 124 
37 126 
37 128 
38 65 
38 67 
38 69 
38 72 
38 74 
38 76 
38 78 
38 79 
38 82 
38 84 
38 86 
38 88 
38 89 
38 91 
38 93 
38 95 
38 97 
38 100 
38 101 
38 103 
38 106 
38 107 
38 110 
38 111 
38 114 
38 116 
38 118 
38 120 
38 122 
38 123 
38 125 
38 127 
39 40 
39 66 
39 67 
39 69 
39 72 
39 74 
39 75 
39 77 
39 80 
39 82 
39 84 
39 85 
39 88 
39 89 
39 92 
39 93 
39 95 
39 97 
39 99 
39 101 
39 104 
39 105 
39 108 
39 110 
39 112 
39 113 
39 115 
39 118 
39 120 
39 121 
39 124 
39 125 
39 128 
40 65 
40 68 
40 70 
40 71 
40 73 
40 76 
40 78 
40 79 
40 81 
40 83 
40 86 
40 87 
40 90 
40 91 
40 94 
40 96 
40 98 
40 100 
40 102 
40 103 
40 106 
40 107 
40 109 
40 111 
40 114 
40 116 
40 117 
40 119 
40 122 
40 123 
40 126 
40 127 
41 42 
41 65 
41 67 
41 69 
41 72 
41 73 
41 76 
41 77 
41 79 
41 81 
41 84 
41 85 
41 87 
41 90 
41 92 
41 94 
41 96 
41 97 
41 100 
41 102 
41 103 
41 105 
41 108 
41 110 
41 111 
41 113 
41 116 
41 118 
41 120 
41 121 
41 123 
41 126 
41 128 
42 66 
42 68 
42 70 
42 71 
42 74 
42 75 
42 78 
42 80 
42 82 
42 83 
42 86 
42 88 
42 89 
42 91 
42 93 
42 95 
42 98 
42 99 
42 101 
42 104 
42 106 
42 107 
42 109 
42 112 
42 114 
42 115 
42 117 
42 119 
42 122 
42 124 
42 125 
42 127 
43 44 
43 66 
43 67 
43 69 
43 71 
43 73 
43 75 
43 78 
43 79 
43 82 
43 83 
43 86 
43 88 
43 90 
43 92 
43 94 
43 96 
43 98 
43 99 
43 101 
43 103 
43 106 
43 108 
43 109 
43 111 
43 113 
43 115 
43 118 
43 120 
43 122 
43 123 
43 125 
43 128 
44 65 
44 68 
44 70 
44 72 
44 74 
44 76 
44 77 
44 80 
44 81 
44 84 
44 85 
44 87 
44 89 
44 91 
44 93 
44 95 
44 97 
44 100 
44 102 
44 104 
44 105 
44 107 
44 110 
44 112 
44 114 
44 116 
44 117 
44 119 
44 121 
44 124 
44 126 
44 127 
45 46 
45 66 
45 67 
45 70 
45 71 
45 74 
45 76 
45 77 
45 79 
45 81 
45 83 
45 86 
45 87 
45 89 
45 92 
45 93 
45 96 
45 97 
45 100 
45 101 
45 103 
45 106 
45 107 
45 110 
45 112 
45 113 
45 115 
45 118 
45 119 
45 122 
45 124 
45 126 
45 128 
46 65 
46 68 
46 69 
46 72 
46 73 
46 75 
46 78 
46 80 
46 82 
46 84 
46 85 
46 88 
46 90 
46 91 
46 94 
46 95 
46 98 
46 99 
46 102 
46 104 
46 105 
46 108 
46 109 
46 111 
46 114 
46 116 
46 117 
46 120 
46 121 
46 123 
46 125 
46 127 
47 48 
47 65 
47 67 
47 69 
47 71 
47 74 
47 75 
47 77 
47 80 
47 82 
47 83 
47 85 
47 88 
47 89 
47 92 
47 94 
47 96 
47 97 
47 99 
47 102 
47 103 
47 106 
47 108 
47 110 
47 111 
47 114 
47 116 
47 117 
47 119 
47 122 
47 124 
47 126 
47 127 
48 66 
48 68 
48 70 
48 72 
48 73 
48 76 
48 78 
48 79 
48 81 
48 84 
48 86 
48 87 
48 90 
48 91 
48 93 
48 95 
48 98 
48 100 
48 101 
48 104 
48 105 
48 107 
48 109 
48 112 
48 113 
48 115 
48 118 
48 120 
48 121 
48 123 
48 125 
48 128 
49 50 
49 65 
49 68 
49 70 
49 71 
49 73 
49 75 
49 78 
49 80 
49 81 
49 84 
49 86 
49 88 
49 90 
49 92 
49 93 
49 95 
49 97 
49 100 
49 101 
49 103 
49 105 
49 108 
49 110 
49 111 
49 113 
49 116 
49 117 
49 119 
49 122 
49 124 
49 125 
49 128 
50 66 
50 67 
50 69 
50 72 
50 74 
50 76 
50 77 
50 79 
50 82 
50 83 
50 85 
50 87 
50 89 
50 91 
50 94 
50 96 
50 98 
50 99 
50 102 
50 104 
50 106 
50 107 
50 109 
50 112 
50 114 
50 115 
50 118 
50 120 
50 121 
50 123 
50 126 
50 127 
51 52 
51 66 
51 68 
51 69 
51 71 
51 73 
51 75 
51 77 
51 80 
51 82 
51 84 
51 86 
51 87 
51 89 
51 92 
51 93 
51 96 
51 98 
51 100 
51 101 
51 104 
51 106 
51 107 
51 110 
51 111 
51 113 
51 116 
51 117 
51 120 
51 121 
51 123 
51 126 
51 127 
52 65 
52 67 
52 70 
52 72 
52 74 
52 76 
52 78 
52 79 
52 81 
52 83 
52 85 
52 88 
52 90 
52 91 
52 94 
52 95 
52 97 
52 99 
52 102 
52 103 
52 105 
52 108 
52 109 
52 112 
52 114 
52 115 
52 118 
52 119 
52 122 
52 124 
52 125 
52 128 
53 54 
53 66 
53 68 
53 69 
53 72 
53 74 
53 76 
53 77 
53 79 
53 81 
53 83 
53 85 
53 88 
53 90 
53 92 
53 93 
53 96 
53 98 
53 99 
53 101 
53 104 
53 105 
53 107 
53 110 
53 111 
53 114 
53 116 
53 117 
53 119 
53 122 
53 123 
53 125 
53 128 
54 65 
54 67 
54 70 
54 71 
54 73 
54 75 
54 78 
54 80 
54 82 
54 84 
54 86 
54 87 
54 89 
54 91 
54 94 
54 95 
54 97 
54 100 
54 102 
54 103 
54 106 
54 108 
54 109 
54 112 
54 113 
54 115 
54 118 
54 120 
54 121 
54 124 
54 126 
54 127 
55 56 
55 66 
55 67 
55 69 
55 71 
55 74 
55 75 
55 77 
55 79 
55 82 
55 84 
55 86 
55 87 
55 90 
55 91 
55 94 
55 95 
55 97 
55 100 
55 101 
55 104 
55 105 
55 108 
55 109 
55 112 
55 114 
55 116 
55 117 
55 119 
55 122 
55 123 
55 126 
55 128 
56 65 
56 68 
56 70 
56 72 
56 73 
56 76 
56 78 
56 80 
56 81 
56 83 
56 85 
56 88 
56 89 
56 92 
56 93 
56 96 
56 98 
56 99 
56 102 
56 103 
56 106 
56 107 
56 110 
56 111 
56 113 
56 115 
56 118 
56 120 
56 121 
56 124 
56 125 
56 127 
57 58 
57 65 
57 67 
57 69 
57 71 
57 74 
57 76 
57 78 
57 80 
57 81 
57 84 
57 86 
57 88 
57 90 
57 92 
57 93 
57 96 
57 97 
57 99 
57 102 
57 104 
57 105 
57 107 
57 109 
57 112 
57 113 
57 115 
57 117 
57 120 
57 122 
57 123 
57 126 
57 127 
58 66 
58 68 
58 70 
58 72 
58 73 
58 75 
58 77 
58 79 
58 82 
58 83 
58 85 
58 87 
58 89 
58 91 
58 94 
58 95 
58 98 
58 100 
58 101 
58 103 
58 106 
58 108 
58 110 
58 111 
58 114 
58 116 
58 118 
58 119 
58 121 
58 124 
58 125 
58 128 
59 60 
59 66 
59 68 
59 69 
59 71 
59 73 
59 76 
59 78 
59 80 
59 81 
59 84 
59 85 
59 88 
59 89 
59 92 
59 94 
59 95 
59 97 
59 99 
59 101 
59 103 
59 106 
59 107 
59 109 
59 112 
59 114 
59 116 
59 118 
59 119 
59 121 
59 123 
59 126 
59 128 
60 65 
60 67 
60 70 
60 72 
60 74 
60 75 
60 77 
60 79 
60 82 
60 83 
60 86 
60 87 
60 90 
60 91 
60 93 
60 96 
60 98 
60 100 
60 102 
60 104 
60 105 
60 108 
60 110 
60 111 
60 113 
60 115 
60 117 
60 120 
60 122 
60 124 
60 125 
60 127 
61 62 
61 65 
61 68 
61 70 
61 71 
61 73 
61 75 
61 77 
61 79 
61 82 
61 83 
61 85 
61 88 
61 90 
61 91 
61 93 
61 95 
61 97 
61 99 
61 102 
61 104 
61 106 
61 107 
61 110 
61 112 
61 113 
61 116 
61 118 
61 120 
61 122 
61 123 
61 126 
61 128 
62 66 
62 67 
62 69 
62 72 
62 74 
62 76 
62 78 
62 80 
62 81 
62 84 
62 86 
62 87 
62 89 
62 92 
62 94 
62 96 
62 98 
62 100 
62 101 
62 103 
62 105 
62 108 
62 109 
62 111 
62 114 
62 115 
62 117 
62 119 
62 121 
62 124 
62 125 
62 127 
63 64 
63 65 
63 67 
63 69 
63 72 
63 73 
63 76 
63 78 
63 80 
63 82 
63 83 
63 86 
63 87 
63 90 
63 91 
63 94 
63 96 
63 97 
63 99 
63 101 
63 104 
63 106 
63 107 
63 110 
63 112 
63 113 
63 116 
63 117 
63 119 
63 121 
63 124 
63 125 
63 128 
64 66 
64 68 
64 70 
64 71 
64 74 
64 75 
64 77 
64 79 
64 81 
64 84 
64 85 
64 88 
64 89 
64 92 
64 93 
64 95 
64 98 
64 100 
64 102 
64 103 
64 105 
64 108 
64 109 
64 111 
64 114 
64 115 
64 118 
64 120 
64 122 
64 123 
64 126 
64 127 
65 66 
67 68 
69 70 
71 72 
73 74 
75 76 
77 78 
79 80 
81 82 
83 84 
85 86 
87 88 
89 90 
91 92 
93 94 
95 96 
97 98 
99 100 
101 102 
103 104 
105 106 
107 108 
109 110 
111 112 
113 114 
115 116 
117 118 
119 120 
121 122 
123 124 
125 126 
127 128 
